(set-logic QF_LIA)
(declare-fun x0 () Int)
(declare-fun x1 () Int)
(declare-fun x2 () Int)
(declare-fun x3 () Int)
(declare-fun x4 () Int)
(declare-fun x5 () Int)
(declare-fun x6 () Int)
(declare-fun x7 () Int)
(declare-fun x8 () Int)
(declare-fun x9 () Int)
(declare-fun A0 () Bool)
(declare-fun A1 () Bool)
(declare-fun A2 () Bool)
(declare-fun A3 () Bool)
(declare-fun A4 () Bool)
(declare-fun A5 () Bool)
(declare-fun A6 () Bool)
(declare-fun A7 () Bool)
(declare-fun A8 () Bool)
(declare-fun A9 () Bool)
(assert (let ((.def_0 (and A2 A4))) (let ((.def_1 (not .def_0))) (let ((.def_2 (* (- 1) x4))) (let ((.def_3 (* (- 1) x3))) (let ((.def_4 (+ .def_3 .def_2))) (let ((.def_5 (< .def_4 1))) (let ((.def_6 (and A4 .def_5))) (let ((.def_7 (not .def_6))) (let ((.def_8 (or .def_7 .def_1))) (let ((.def_9 (and A5 A9))) (let ((.def_10 (not .def_9))) (let ((.def_11 (not A3))) (let ((.def_12 (or A9 .def_11))) (let ((.def_13 (or .def_12 .def_10))) (let ((.def_14 (not .def_13))) (let ((.def_15 (or .def_14 .def_8))) (let ((.def_16 (not .def_15))) (let ((.def_17 (not A6))) (let ((.def_18 (or .def_17 A2))) (let ((.def_19 (not A2))) (let ((.def_20 (< .def_3 (- 1)))) (let ((.def_21 (not .def_20))) (let ((.def_22 (or .def_21 .def_19))) (let ((.def_23 (not .def_22))) (let ((.def_24 (or .def_23 .def_18))) (let ((.def_25 (not A8))) (let ((.def_26 (= .def_19 .def_25))) (let ((.def_27 (* (- 1) x0))) (let ((.def_28 (* 1 x9))) (let ((.def_29 (+ .def_28 .def_27))) (let ((.def_30 (< .def_29 1))) (let ((.def_31 (or .def_30 A6))) (let ((.def_32 (not .def_31))) (let ((.def_33 (or .def_32 .def_26))) (let ((.def_34 (and .def_33 .def_24))) (let ((.def_35 (not .def_34))) (let ((.def_36 (and .def_35 .def_16))) (let ((.def_37 (not .def_36))) (let ((.def_38 (* (- 1) x2))) (let ((.def_39 (< .def_38 1))) (let ((.def_40 (or .def_39 .def_25))) (let ((.def_41 (* (- 1) x6))) (let ((.def_42 (< .def_41 (- 1)))) (let ((.def_43 (* 1 x7))) (let ((.def_44 (< .def_43 (- 1)))) (let ((.def_45 (not .def_44))) (let ((.def_46 (and .def_45 .def_42))) (let ((.def_47 (not .def_46))) (let ((.def_48 (and .def_47 .def_40))) (let ((.def_49 (not .def_48))) (let ((.def_50 (< .def_2 (- 1)))) (let ((.def_51 (not .def_50))) (let ((.def_52 (and A2 .def_51))) (let ((.def_53 (< .def_27 (- 1)))) (let ((.def_54 (not .def_53))) (let ((.def_55 (* (- 1) x5))) (let ((.def_56 (< .def_55 (- 1)))) (let ((.def_57 (not .def_56))) (let ((.def_58 (or .def_57 .def_54))) (let ((.def_59 (not .def_58))) (let ((.def_60 (or .def_59 .def_52))) (let ((.def_61 (not .def_60))) (let ((.def_62 (or .def_61 .def_49))) (let ((.def_63 (not .def_62))) (let ((.def_64 (* 1 x2))) (let ((.def_65 (+ .def_28 .def_64))) (let ((.def_66 (< .def_65 1))) (let ((.def_67 (not .def_66))) (let ((.def_68 (or .def_67 A4))) (let ((.def_69 (not .def_68))) (let ((.def_70 (* 1 x4))) (let ((.def_71 (+ .def_28 .def_70))) (let ((.def_72 (< .def_71 (- 1)))) (let ((.def_73 (and .def_72 .def_17))) (let ((.def_74 (and .def_73 .def_69))) (let ((.def_75 (not .def_74))) (let ((.def_76 (* (- 1) x9))) (let ((.def_77 (< .def_76 1))) (let ((.def_78 (and A8 .def_77))) (let ((.def_79 (* (- 1) x8))) (let ((.def_80 (* 1 x5))) (let ((.def_81 (+ .def_80 .def_79))) (let ((.def_82 (< .def_81 (- 1)))) (let ((.def_83 (not .def_82))) (let ((.def_84 (or A5 .def_83))) (let ((.def_85 (not .def_84))) (let ((.def_86 (and .def_85 .def_78))) (let ((.def_87 (or .def_86 .def_75))) (let ((.def_88 (and .def_87 .def_63))) (let ((.def_89 (or .def_88 .def_37))) (let ((.def_90 (not .def_89))) (let ((.def_91 (* 1 x0))) (let ((.def_92 (+ .def_2 .def_91))) (let ((.def_93 (< .def_92 1))) (let ((.def_94 (not .def_93))) (let ((.def_95 (* 1 x1))) (let ((.def_96 (< .def_95 (- 1)))) (let ((.def_97 (not .def_96))) (let ((.def_98 (or .def_97 .def_94))) (let ((.def_99 (* 1 x3))) (let ((.def_100 (< .def_99 (- 1)))) (let ((.def_101 (not .def_100))) (let ((.def_102 (not A9))) (let ((.def_103 (and .def_102 .def_101))) (let ((.def_104 (or .def_103 .def_98))) (let ((.def_105 (+ .def_76 .def_64))) (let ((.def_106 (< .def_105 (- 1)))) (let ((.def_107 (* 1 x6))) (let ((.def_108 (+ .def_107 .def_3))) (let ((.def_109 (< .def_108 (- 1)))) (let ((.def_110 (not .def_109))) (let ((.def_111 (and .def_110 .def_106))) (let ((.def_112 (not .def_111))) (let ((.def_113 (not A7))) (let ((.def_114 (+ .def_55 .def_76))) (let ((.def_115 (< .def_114 1))) (let ((.def_116 (not .def_115))) (let ((.def_117 (and .def_116 .def_113))) (let ((.def_118 (not .def_117))) (let ((.def_119 (and .def_118 .def_112))) (let ((.def_120 (and .def_119 .def_104))) (let ((.def_121 (not .def_120))) (let ((.def_122 (< .def_64 1))) (let ((.def_123 (< .def_99 1))) (let ((.def_124 (or .def_123 .def_122))) (let ((.def_125 (not .def_124))) (let ((.def_126 (+ .def_95 .def_64))) (let ((.def_127 (< .def_126 (- 1)))) (let ((.def_128 (= .def_127 .def_53))) (let ((.def_129 (not .def_128))) (let ((.def_130 (or .def_129 .def_125))) (let ((.def_131 (< .def_91 (- 1)))) (let ((.def_132 (+ .def_41 .def_79))) (let ((.def_133 (< .def_132 1))) (let ((.def_134 (not .def_133))) (let ((.def_135 (= .def_134 .def_131))) (let ((.def_136 (not .def_135))) (let ((.def_137 (< .def_43 1))) (let ((.def_138 (and A7 .def_137))) (let ((.def_139 (and .def_138 .def_136))) (let ((.def_140 (not .def_139))) (let ((.def_141 (or .def_140 .def_130))) (let ((.def_142 (not .def_141))) (let ((.def_143 (and .def_142 .def_121))) (let ((.def_144 (and .def_25 .def_19))) (let ((.def_145 (not .def_144))) (let ((.def_146 (+ .def_91 .def_70))) (let ((.def_147 (< .def_146 1))) (let ((.def_148 (and A1 .def_147))) (let ((.def_149 (or .def_148 .def_145))) (let ((.def_150 (not .def_149))) (let ((.def_151 (not A4))) (let ((.def_152 (and .def_151 .def_11))) (let ((.def_153 (not .def_152))) (let ((.def_154 (or .def_17 A0))) (let ((.def_155 (or .def_154 .def_153))) (let ((.def_156 (not .def_155))) (let ((.def_157 (and .def_156 .def_150))) (let ((.def_158 (< .def_95 1))) (let ((.def_159 (not .def_158))) (let ((.def_160 (or A5 .def_159))) (let ((.def_161 (not .def_160))) (let ((.def_162 (not A0))) (let ((.def_163 (or .def_162 A9))) (let ((.def_164 (and .def_163 .def_161))) (let ((.def_165 (not .def_164))) (let ((.def_166 (= .def_19 .def_50))) (let ((.def_167 (not .def_166))) (let ((.def_168 (or .def_45 .def_44))) (let ((.def_169 (or .def_168 .def_167))) (let ((.def_170 (not .def_169))) (let ((.def_171 (and .def_170 .def_165))) (let ((.def_172 (and .def_171 .def_157))) (let ((.def_173 (not .def_172))) (let ((.def_174 (and .def_173 .def_143))) (let ((.def_175 (not .def_174))) (let ((.def_176 (and .def_175 .def_90))) (let ((.def_177 (< .def_70 (- 1)))) (let ((.def_178 (and .def_102 .def_177))) (let ((.def_179 (not .def_178))) (let ((.def_180 (not A5))) (let ((.def_181 (+ .def_91 .def_41))) (let ((.def_182 (< .def_181 (- 1)))) (let ((.def_183 (not .def_182))) (let ((.def_184 (and .def_183 .def_180))) (let ((.def_185 (= .def_184 .def_179))) (let ((.def_186 (not .def_185))) (let ((.def_187 (or A3 A6))) (let ((.def_188 (* (- 1) x7))) (let ((.def_189 (+ .def_2 .def_188))) (let ((.def_190 (< .def_189 (- 1)))) (let ((.def_191 (not .def_190))) (let ((.def_192 (and .def_191 .def_25))) (let ((.def_193 (not .def_192))) (let ((.def_194 (or .def_193 .def_187))) (let ((.def_195 (and .def_194 .def_186))) (let ((.def_196 (not .def_195))) (let ((.def_197 (< .def_70 1))) (let ((.def_198 (not .def_197))) (let ((.def_199 (or .def_197 .def_198))) (let ((.def_200 (* 1 x8))) (let ((.def_201 (+ .def_200 .def_55))) (let ((.def_202 (< .def_201 (- 1)))) (let ((.def_203 (+ .def_80 .def_200))) (let ((.def_204 (< .def_203 1))) (let ((.def_205 (not .def_204))) (let ((.def_206 (or .def_205 .def_202))) (let ((.def_207 (and .def_206 .def_199))) (let ((.def_208 (+ .def_99 .def_64))) (let ((.def_209 (< .def_208 1))) (let ((.def_210 (and .def_209 A5))) (let ((.def_211 (not .def_210))) (let ((.def_212 (+ .def_41 .def_64))) (let ((.def_213 (< .def_212 (- 1)))) (let ((.def_214 (not .def_213))) (let ((.def_215 (and .def_214 A4))) (let ((.def_216 (not .def_215))) (let ((.def_217 (or .def_216 .def_211))) (let ((.def_218 (not .def_217))) (let ((.def_219 (and .def_218 .def_207))) (let ((.def_220 (or .def_219 .def_196))) (let ((.def_221 (not .def_220))) (let ((.def_222 (* (- 1) x1))) (let ((.def_223 (+ .def_222 .def_41))) (let ((.def_224 (< .def_223 1))) (let ((.def_225 (< .def_79 (- 1)))) (let ((.def_226 (not .def_225))) (let ((.def_227 (= .def_226 .def_224))) (let ((.def_228 (< .def_2 1))) (let ((.def_229 (and A9 .def_228))) (let ((.def_230 (not .def_229))) (let ((.def_231 (and .def_230 .def_227))) (let ((.def_232 (+ .def_188 .def_3))) (let ((.def_233 (< .def_232 1))) (let ((.def_234 (not .def_233))) (let ((.def_235 (< .def_3 1))) (let ((.def_236 (or .def_235 .def_234))) (let ((.def_237 (not .def_236))) (let ((.def_238 (+ .def_41 .def_76))) (let ((.def_239 (< .def_238 (- 1)))) (let ((.def_240 (not .def_239))) (let ((.def_241 (+ .def_2 .def_80))) (let ((.def_242 (< .def_241 (- 1)))) (let ((.def_243 (or .def_242 .def_240))) (let ((.def_244 (not .def_243))) (let ((.def_245 (and .def_244 .def_237))) (let ((.def_246 (not .def_245))) (let ((.def_247 (and .def_246 .def_231))) (let ((.def_248 (< .def_38 (- 1)))) (let ((.def_249 (not .def_248))) (let ((.def_250 (+ .def_55 .def_95))) (let ((.def_251 (< .def_250 1))) (let ((.def_252 (not .def_251))) (let ((.def_253 (and .def_252 .def_249))) (let ((.def_254 (not .def_253))) (let ((.def_255 (+ .def_41 .def_200))) (let ((.def_256 (< .def_255 1))) (let ((.def_257 (not .def_256))) (let ((.def_258 (or .def_39 .def_257))) (let ((.def_259 (or .def_258 .def_254))) (let ((.def_260 (not .def_259))) (let ((.def_261 (+ .def_222 .def_99))) (let ((.def_262 (< .def_261 1))) (let ((.def_263 (not .def_262))) (let ((.def_264 (and A6 .def_263))) (let ((.def_265 (not .def_264))) (let ((.def_266 (not .def_77))) (let ((.def_267 (not A1))) (let ((.def_268 (or .def_267 .def_266))) (let ((.def_269 (not .def_268))) (let ((.def_270 (and .def_269 .def_265))) (let ((.def_271 (not .def_270))) (let ((.def_272 (or .def_271 .def_260))) (let ((.def_273 (not .def_272))) (let ((.def_274 (or .def_273 .def_247))) (let ((.def_275 (and .def_274 .def_221))) (let ((.def_276 (+ .def_188 .def_28))) (let ((.def_277 (< .def_276 (- 1)))) (let ((.def_278 (or .def_267 .def_277))) (let ((.def_279 (not .def_278))) (let ((.def_280 (< .def_222 1))) (let ((.def_281 (not .def_280))) (let ((.def_282 (and A2 .def_281))) (let ((.def_283 (or .def_282 .def_279))) (let ((.def_284 (not .def_283))) (let ((.def_285 (= .def_180 .def_151))) (let ((.def_286 (not .def_285))) (let ((.def_287 (+ .def_3 .def_95))) (let ((.def_288 (< .def_287 (- 1)))) (let ((.def_289 (+ .def_99 .def_95))) (let ((.def_290 (< .def_289 1))) (let ((.def_291 (and .def_290 .def_288))) (let ((.def_292 (not .def_291))) (let ((.def_293 (or .def_292 .def_286))) (let ((.def_294 (not .def_293))) (let ((.def_295 (or .def_294 .def_284))) (let ((.def_296 (or A7 .def_113))) (let ((.def_297 (not .def_296))) (let ((.def_298 (= A3 A2))) (let ((.def_299 (or .def_298 .def_297))) (let ((.def_300 (+ .def_38 .def_55))) (let ((.def_301 (< .def_300 1))) (let ((.def_302 (= .def_301 A4))) (let ((.def_303 (not .def_302))) (let ((.def_304 (+ .def_41 .def_27))) (let ((.def_305 (< .def_304 (- 1)))) (let ((.def_306 (not .def_305))) (let ((.def_307 (or .def_306 A3))) (let ((.def_308 (or .def_307 .def_303))) (let ((.def_309 (not .def_308))) (let ((.def_310 (or .def_309 .def_299))) (let ((.def_311 (not .def_310))) (let ((.def_312 (and .def_311 .def_295))) (let ((.def_313 (not .def_312))) (let ((.def_314 (or .def_102 A9))) (let ((.def_315 (not .def_131))) (let ((.def_316 (or .def_248 .def_315))) (let ((.def_317 (or .def_316 .def_314))) (let ((.def_318 (not .def_317))) (let ((.def_319 (+ .def_188 .def_27))) (let ((.def_320 (< .def_319 1))) (let ((.def_321 (and A4 .def_320))) (let ((.def_322 (< .def_188 (- 1)))) (let ((.def_323 (= A5 .def_322))) (let ((.def_324 (and .def_323 .def_321))) (let ((.def_325 (not .def_324))) (let ((.def_326 (or .def_325 .def_318))) (let ((.def_327 (+ .def_2 .def_43))) (let ((.def_328 (< .def_327 (- 1)))) (let ((.def_329 (or .def_328 A4))) (let ((.def_330 (not .def_329))) (let ((.def_331 (not .def_122))) (let ((.def_332 (and .def_180 .def_331))) (let ((.def_333 (or .def_332 .def_330))) (let ((.def_334 (not .def_333))) (let ((.def_335 (+ .def_64 .def_76))) (let ((.def_336 (< .def_335 1))) (let ((.def_337 (not .def_336))) (let ((.def_338 (< .def_80 1))) (let ((.def_339 (or .def_338 .def_337))) (let ((.def_340 (or .def_281 .def_25))) (let ((.def_341 (not .def_340))) (let ((.def_342 (and .def_341 .def_339))) (let ((.def_343 (and .def_342 .def_334))) (let ((.def_344 (and .def_343 .def_326))) (let ((.def_345 (or .def_344 .def_313))) (let ((.def_346 (not .def_345))) (let ((.def_347 (or .def_346 .def_275))) (let ((.def_348 (and .def_347 .def_176))) (let ((.def_349 (not .def_348))) (let ((.def_350 (<= x9 1))) (let ((.def_351 (<= 0 x9))) (let ((.def_352 (<= x8 1))) (let ((.def_353 (<= 0 x8))) (let ((.def_354 (<= x7 1))) (let ((.def_355 (<= 0 x7))) (let ((.def_356 (<= x6 1))) (let ((.def_357 (<= 0 x6))) (let ((.def_358 (<= x5 1))) (let ((.def_359 (<= 0 x5))) (let ((.def_360 (<= x4 1))) (let ((.def_361 (<= 0 x4))) (let ((.def_362 (<= x3 1))) (let ((.def_363 (<= 0 x3))) (let ((.def_364 (<= x2 1))) (let ((.def_365 (<= 0 x2))) (let ((.def_366 (<= x1 1))) (let ((.def_367 (<= 0 x1))) (let ((.def_368 (<= x0 1))) (let ((.def_369 (<= 0 x0))) (let ((.def_370 (and .def_369 .def_368 .def_367 .def_366 .def_365 .def_364 .def_363 .def_362 .def_361 .def_360 .def_359 .def_358 .def_357 .def_356 .def_355 .def_354 .def_353 .def_352 .def_351 .def_350 .def_349))) .def_370))))))))))))))))))))))))))))))))))))))))))))))))))))))))))))))))))))))))))))))))))))))))))))))))))))))))))))))))))))))))))))))))))))))))))))))))))))))))))))))))))))))))))))))))))))))))))))))))))))))))))))))))))))))))))))))))))))))))))))))))))))))))))))))))))))))))))))))))))))))))))))))))))))))))))))))))))))))))))))))))))))))))))))))))))))))))))))))))))))))))))))))))))))
(check-sat)
